Route #1: 11 28 30 8 21 9 27 10 40 25 16 22 31 12 14 47
Route #2: 42 17 46 38 23 39 4 26 20
Route #3: 1 44 6 7 32 13 2
Route #4: 48 34 29 35 43 5
Route #5: 19 41 37 33
Route #6: 36 45 24
Route #7: 15 18 3
cost 1525.747407000426
